BAYES
144
2 2 2 2 2 2 2 2 2 2 2 2 2 2 2 2 2 2 2 2 2 2 2 2 2 2 2 2 2 2 2 2 2 2 2 2 2 2 2 2 2 2 2 2 2 2 2 2 2 2 2 2 2 2 2 2 2 2 2 2 2 2 2 2 2 2 2 2 2 2 2 2 2 2 2 2 2 2 2 2 2 2 2 2 2 2 2 2 2 2 2 2 2 2 2 2 2 2 2 2 2 2 2 2 2 2 2 2 2 2 2 2 2 2 2 2 2 2 2 2 2 2 2 2 2 2 2 2 2 2 2 2 2 2 2 2 2 2 2 2 2 2 2 2
144
3 1 12 0
3 2 13 1
3 3 14 2
3 4 15 3
3 5 16 4
3 6 17 5
3 7 18 6
3 8 19 7
3 9 20 8
3 10 21 9
3 11 22 10
2 12 11
3 13 24 12
3 14 25 13
3 15 26 14
3 16 27 15
3 17 28 16
3 18 29 17
3 19 30 18
3 20 31 19
3 21 32 20
3 22 33 21
3 23 34 22
2 24 23
3 25 36 24
3 26 37 25
3 27 38 26
3 28 39 27
3 29 40 28
3 30 41 29
3 31 42 30
3 32 43 31
3 33 44 32
3 34 45 33
3 35 46 34
2 36 35
3 37 48 36
3 38 49 37
3 39 50 38
3 40 51 39
3 41 52 40
3 42 53 41
3 43 54 42
3 44 55 43
3 45 56 44
3 46 57 45
3 47 58 46
2 48 47
3 49 60 48
3 50 61 49
3 51 62 50
3 52 63 51
3 53 64 52
3 54 65 53
3 55 66 54
3 56 67 55
3 57 68 56
3 58 69 57
3 59 70 58
2 60 59
3 61 72 60
3 62 73 61
3 63 74 62
3 64 75 63
3 65 76 64
3 66 77 65
3 67 78 66
3 68 79 67
3 69 80 68
3 70 81 69
3 71 82 70
2 72 71
3 73 84 72
3 74 85 73
3 75 86 74
3 76 87 75
3 77 88 76
3 78 89 77
3 79 90 78
3 80 91 79
3 81 92 80
3 82 93 81
3 83 94 82
2 84 83
3 85 96 84
3 86 97 85
3 87 98 86
3 88 99 87
3 89 100 88
3 90 101 89
3 91 102 90
3 92 103 91
3 93 104 92
3 94 105 93
3 95 106 94
2 96 95
3 97 108 96
3 98 109 97
3 99 110 98
3 100 111 99
3 101 112 100
3 102 113 101
3 103 114 102
3 104 115 103
3 105 116 104
3 106 117 105
3 107 118 106
2 108 107
3 109 120 108
3 110 121 109
3 111 122 110
3 112 123 111
3 113 124 112
3 114 125 113
3 115 126 114
3 116 127 115
3 117 128 116
3 118 129 117
3 119 130 118
2 120 119
3 121 132 120
3 122 133 121
3 123 134 122
3 124 135 123
3 125 136 124
3 126 137 125
3 127 138 126
3 128 139 127
3 129 140 128
3 130 141 129
3 131 142 130
2 132 131
2 144 132
2 145 133
2 146 134
2 147 135
2 148 136
2 149 137
2 150 138
2 151 139
2 152 140
2 153 141
2 154 142
1  143
8
0 1 1 0 1 0 1 0
8
0 1 1 0 1 0 1 0
8
1 0 0 1 0 1 0 1
8
0 1 1 0 0 1 1 0
8
1 0 1 0 1 0 0 1
8
0 1 1 0 0 1 1 0
8
1 0 0 1 1 0 1 0
8
0 1 1 0 0 1 0 1
8
0 1 1 0 0 1 1 0
8
0 1 0 1 1 0 0 1
8
0 1 0 1 0 1 1 0
4
0 1 1 0
8
1 0 0 1 1 0 0 1
8
0.6780660197731264 0.3219339802268736 0.9721107631332693 0.02788923686673073 0.3274360299097724 0.6725639700902276 0.2632280521312797 0.7367719478687202
8
1 0 0 1 1 0 1 0
8
0 1 0 1 0 1 1 0
8
1 0 0 1 1 0 0 1
8
1 0 0 1 1 0 0 1
8
0 1 0 1 1 0 0 1
8
0 1 1 0 0 1 0 1
8
0 1 0 1 1 0 0 1
8
1 0 0 1 0 1 1 0
8
0.2279316300918091 0.7720683699081908 0.126429224481509 0.873570775518491 0.6867363028294348 0.3132636971705653 0.5602054527748898 0.4397945472251103
4
0 1 1 0
8
0 1 1 0 1 0 0 1
8
0 1 1 0 0 1 0 1
8
0 1 0 1 1 0 0 1
8
1 0 1 0 0 1 1 0
8
1 0 1 0 0 1 0 1
8
0 1 0 1 1 0 1 0
8
0 1 0 1 1 0 1 0
8
0 1 1 0 1 0 1 0
8
1 0 0 1 1 0 0 1
8
0 1 0 1 0 1 1 0
8
1 0 1 0 1 0 0 1
4
1 0 1 0
8
0.37152951354297153 0.6284704864570284 0.607596487523192 0.392403512476808 0.438870536418789 0.5611294635812111 0.6174325727401203 0.38256742725987974
8
1 0 0 1 1 0 0 1
8
1 0 1 0 0 1 0 1
8
0.5102884997422067 0.48971150025779325 0.57883886811137 0.4211611318886301 0.47372948951163785 0.5262705104883622 0.9039834928906627 0.09601650710933733
8
0 1 0 1 1 0 1 0
8
0 1 0 1 1 0 0 1
8
1 0 1 0 1 0 0 1
8
1 0 1 0 1 0 1 0
8
0 1 0 1 1 0 0 1
8
1 0 1 0 0 1 1 0
8
1 0 1 0 1 0 0 1
4
1 0 1 0
8
1 0 1 0 0 1 0 1
8
1 0 0 1 1 0 0 1
8
0 1 0 1 1 0 0 1
8
1 0 1 0 0 1 1 0
8
1 0 1 0 0 1 0 1
8
1 0 0 1 1 0 1 0
8
1 0 1 0 1 0 0 1
8
1 0 0 1 0 1 0 1
8
0 1 1 0 1 0 0 1
8
1 0 1 0 1 0 0 1
8
0 1 1 0 1 0 1 0
4
0.5553797635269834 0.44462023647301663 0.7379780840327381 0.2620219159672619
8
1 0 1 0 1 0 1 0
8
0 1 1 0 0 1 1 0
8
0 1 1 0 0 1 1 0
8
1 0 1 0 1 0 0 1
8
1 0 0 1 0 1 0 1
8
0 1 0 1 0 1 0 1
8
0.33084250777542756 0.6691574922245724 0.4818103369423464 0.5181896630576536 0.5034066217542839 0.4965933782457161 0.8890202227872799 0.11097977721272013
8
1 0 0 1 0 1 1 0
8
1 0 1 0 1 0 1 0
8
0 1 1 0 0 1 1 0
8
0 1 1 0 0 1 1 0
4
0.7329579211609254 0.26704207883907466 0.4799444794844515 0.5200555205155485
8
1 0 1 0 1 0 0 1
8
0 1 1 0 0 1 1 0
8
1 0 1 0 0 1 0 1
8
1 0 0 1 1 0 0 1
8
1 0 0 1 0 1 0 1
8
1 0 1 0 1 0 1 0
8
0 1 0 1 1 0 1 0
8
1 0 0 1 0 1 0 1
8
0 1 1 0 1 0 0 1
8
0 1 0 1 0 1 1 0
8
1 0 0 1 1 0 1 0
4
0.3551765512916187 0.6448234487083813 0.5511324465614541 0.448867553438546
8
1 0 0 1 0 1 1 0
8
0 1 0 1 1 0 1 0
8
1 0 0 1 1 0 0 1
8
0.33533452107114337 0.6646654789288566 0.8292330045106773 0.17076699548932275 0.6713017834706358 0.3286982165293643 0.33754433443645243 0.6624556655635476
8
0 1 0 1 0 1 1 0
8
1 0 0 1 1 0 0 1
8
0 1 1 0 0 1 0 1
8
0 1 1 0 1 0 1 0
8
1 0 1 0 0 1 0 1
8
0 1 1 0 0 1 1 0
8
1 0 1 0 0 1 1 0
4
0 1 0 1
8
0 1 1 0 1 0 1 0
8
0 1 0 1 0 1 1 0
8
0 1 0 1 1 0 0 1
8
0.6554000789014803 0.3445999210985198 0.5264822112590907 0.4735177887409094 0.3875767011627839 0.6124232988372161 0.2795413766308193 0.7204586233691808
8
1 0 0 1 1 0 0 1
8
0 1 1 0 1 0 0 1
8
0.48436246619494927 0.5156375338050507 0.17168100445775863 0.8283189955422413 0.9470819425362845 0.05291805746371553 0.9044670369210216 0.09553296307897835
8
1 0 1 0 1 0 0 1
8
0 1 1 0 1 0 0 1
8
0 1 1 0 0 1 0 1
8
1 0 1 0 0 1 1 0
4
0.524128846202233 0.47587115379776707 0.8944010702900171 0.10559892970998286
8
0 1 1 0 0 1 0 1
8
1 0 0 1 0 1 1 0
8
0.28090652142701117 0.7190934785729887 0.30307412793738236 0.6969258720626177 0.3012276030130665 0.6987723969869336 0.5370375119343956 0.46296248806560436
8
1 0 1 0 1 0 0 1
8
1 0 1 0 0 1 1 0
8
0 1 1 0 0 1 1 0
8
0 1 0 1 0 1 1 0
8
1 0 0 1 1 0 0 1
8
0 1 1 0 0 1 1 0
8
0 1 0 1 1 0 0 1
8
0.22412938015277228 0.7758706198472277 0.3368961073069363 0.6631038926930637 0.33552943750250647 0.6644705624974936 0.099084007946515 0.900915992053485
4
1 0 0 1
8
0 1 0 1 1 0 1 0
8
0 1 0 1 1 0 1 0
8
0 1 1 0 0 1 1 0
8
0 1 0 1 0 1 1 0
8
0 1 0 1 1 0 1 0
8
0 1 0 1 0 1 1 0
8
1 0 1 0 1 0 1 0
8
0 1 1 0 0 1 1 0
8
0 1 1 0 1 0 0 1
8
1 0 1 0 1 0 0 1
8
1 0 0 1 1 0 0 1
4
0 1 1 0
4
0 1 0 1
4
0 1 1 0
4
0 1 0 1
4
0 1 1 0
4
0 1 1 0
4
0.4832792331919431 0.5167207668080569 0.47542170883586343 0.5245782911641365
4
0 1 1 0
4
1 0 1 0
4
0 1 1 0
4
0 1 1 0
4
1 0 0 1
2
1 0
